
<<< setup

Version identifier: 22.1.1.0 | 2022-11-27 | 9160aff4d
Tried aggregator 1 time.
LP Presolve eliminated 1286 rows and 1202 columns.
Reduced LP has 48 rows, 108 columns, and 195 nonzeros.
Presolve time = 0.00 sec. (2.53 ticks)
Initializing dual steep norms . . .

Iteration log . . .
Iteration:     1   Dual infeasibility =           593.842661
Iteration:    39   Dual objective     =          1631.050799
main returns 0

<<< main


<<< done

